     Program PWSCF v.6.2 starts on 23Nov2021 at 15:20:47

     Reading input from espresso.pwi

     Current dimensions of program PWSCF are:
     Max number of different atomic species (ntypx) = 10
     Max number of k-points (npk) =  40000
     Max angular momentum in pseudopotentials (lmaxx) =  3
               file Cu.pbe-dn-kjpaw_psl.1.0.0.UPF: wavefunction(s)  4S 3D renormalized

     Subspace diagonalization in iterative solution of the eigenvalue problem:
     a serial algorithm will be used

     Found symmetry operation: I + (  0.0000 -0.5000 -0.5000)
     This is a supercell, fractional translations are disabled

     bravais-lattice index     =            0
     lattice parameter (alat)  =       6.8030  a.u.
     unit-cell volume          =     314.8503 (a.u.)^3
     number of atoms/cell      =            4
     number of atomic types    =            1
     number of electrons       =        44.00
     number of Kohn-Sham states=           26
     kinetic-energy cutoff     =      50.0000  Ry
     charge density cutoff     =     500.0000  Ry
     convergence threshold     =      1.0E-06
     mixing beta               =       0.7000
     number of iterations used =            8  plain     mixing
     Exchange-correlation      =  SLA  PW   PBX  PBC ( 1  4  3  4 0 0)
     nstep                     =           50

     celldm(1)=   6.803014  celldm(2)=   0.000000  celldm(3)=   0.000000
     celldm(4)=   0.000000  celldm(5)=   0.000000  celldm(6)=   0.000000

     crystal axes: (cart. coord. in units of alat)
               a(1) = (   1.000000   0.000000   0.000000 )
               a(2) = (   0.000000   1.000000   0.000000 )
               a(3) = (   0.000000   0.000000   1.000000 )

     reciprocal axes: (cart. coord. in units 2 pi/alat)
               b(1) = (  1.000000  0.000000  0.000000 )
               b(2) = (  0.000000  1.000000  0.000000 )
               b(3) = (  0.000000  0.000000  1.000000 )

     PseudoPot. # 1 for Cu read from file:
     /home/harris.se/espresso/pseudos/Cu.pbe-dn-kjpaw_psl.1.0.0.UPF
     MD5 check sum: cfffd1f38ee05704b3e17f46f1730a6f
     Pseudo is Projector augmented-wave + core cor, Zval = 11.0
     Generated using "atomic" code by A. Dal Corso  v.6.3
     Shape of augmentation charge: PSQ
     Using radial grid of 1199 points,  6 beta functions with:
                l(1) =   0
                l(2) =   0
                l(3) =   1
                l(4) =   1
                l(5) =   2
                l(6) =   2
     Q(r) pseudized with 0 coefficients

     atomic species   valence    mass     pseudopotential
        Cu            11.00    63.54600     Cu( 1.00)

     48 Sym. Ops., with inversion, found

   Cartesian axes

     site n.     atom                  positions (alat units)
         1           Cu  tau(   1) = (   0.0000000   0.0000000   0.0000000  )
         2           Cu  tau(   2) = (   0.0000000   0.5000000   0.5000000  )
         3           Cu  tau(   3) = (   0.5000000   0.0000000   0.5000000  )
         4           Cu  tau(   4) = (   0.5000000   0.5000000   0.0000000  )

     number of k points=    10  gaussian smearing, width (Ry)=  0.1000
                       cart. coord. in units 2pi/alat
        k(    1) = (   0.0000000   0.0000000   0.0000000), wk =   0.0312500
        k(    2) = (   0.0000000   0.0000000   0.2500000), wk =   0.1875000
        k(    3) = (   0.0000000   0.0000000  -0.5000000), wk =   0.0937500
        k(    4) = (   0.0000000   0.2500000   0.2500000), wk =   0.3750000
        k(    5) = (   0.0000000   0.2500000  -0.5000000), wk =   0.3750000
        k(    6) = (   0.0000000  -0.5000000  -0.5000000), wk =   0.0937500
        k(    7) = (   0.2500000   0.2500000   0.2500000), wk =   0.2500000
        k(    8) = (   0.2500000   0.2500000  -0.5000000), wk =   0.3750000
        k(    9) = (   0.2500000  -0.5000000  -0.5000000), wk =   0.1875000
        k(   10) = (  -0.5000000  -0.5000000  -0.5000000), wk =   0.0312500

     Initial potential from superposition of free atoms

     starting charge   43.99909, renormalised to   44.00000
     Starting wfc are   36 randomized atomic wfcs
     Checking if some PAW data can be deallocated...

     Self-consistent Calculation

     iteration #  1     ecut=    50.00 Ry     beta= 0.70
     Davidson diagonalization with overlap
     ethr =  1.00E-02,  avg # of iterations =  2.4

     Threshold (ethr) on eigenvalues was too large:
     Diagonalizing with lowered threshold

     Davidson diagonalization with overlap
     ethr =  5.88E-04,  avg # of iterations =  2.5

     total energy              =    -852.24356487 Ry
     Harris-Foulkes estimate   =    -852.49354959 Ry
     estimated scf accuracy    <       0.31523405 Ry

[...]

     End of self-consistent calculation

          k = 0.0000 0.0000 0.0000 (  1863 PWs)   bands (ev):

     3.3766   7.8460   7.8460   7.8462   8.3070   8.3070   8.3070   9.7291
     9.7291   9.7291  10.5691  10.5691  11.1303  11.1303  11.1305  11.2953
    11.2953  11.2953  11.2955  11.2955  11.2955  14.3230  14.3230  14.3230
    20.0218  20.0218

[...]

          k =-0.5000-0.5000-0.5000 (  1856 PWs)   bands (ev):

[...]

     the Fermi energy is    13.0434 ev

!    total energy              =    -852.42988453 Ry
     Harris-Foulkes estimate   =    -852.42988450 Ry
     estimated scf accuracy    <       0.00000011 Ry

     total all-electron energy =    -13239.948949 Ry

     The total energy is the sum of the following terms:

     one-electron contribution =    -109.69153591 Ry
     hartree contribution      =     121.45272343 Ry
     xc contribution           =    -178.47541901 Ry
     ewald contribution        =    -326.18971801 Ry
     one-center paw contrib.   =    -359.41377981 Ry
     smearing contrib. (-TS)   =      -0.11215520 Ry

     convergence has been achieved in   6 iterations

     Forces acting on atoms (cartesian axes, Ry/au):

     atom    1 type  1   force =     0.00000000    0.00000000    0.00000000
     atom    2 type  1   force =     0.00000000    0.00000000    0.00000000
     atom    3 type  1   force =     0.00000000    0.00000000    0.00000000
     atom    4 type  1   force =     0.00000000    0.00000000    0.00000000

     Total force =     0.000000     Total SCF correction =     0.000000

     Computing stress (Cartesian axis) and pressure

          total   stress  (Ry/bohr**3)                   (kbar)     P=   45.15
   0.00030690   0.00000000   0.00000000         45.15      0.00      0.00
   0.00000000   0.00030690   0.00000000          0.00     45.15      0.00
   0.00000000   0.00000000   0.00030690          0.00      0.00     45.15

     BFGS Geometry Optimization

     number of scf cycles    =   1
     number of bfgs steps    =   0

     enthalpy new            =    -852.4298845279 Ry

     new trust radius        =       0.0272280054 bohr
     new conv_thr            =       0.0000010000 Ry

     new unit-cell volume =    322.15306 a.u.^3 (    47.73816 Ang^3 )
     density =      8.84162 g/cm^3

CELL_PARAMETERS (angstrom)
   3.627620802   0.000000000   0.000000000
   0.000000000   3.627620802   0.000000000
   0.000000000   0.000000000   3.627620802

ATOMIC_POSITIONS (angstrom)
Cu       0.000000000   0.000000000   0.000000000
Cu       0.000000000   1.813810401   1.813810401
Cu       1.813810401   0.000000000   1.813810401
Cu       1.813810401   1.813810401   0.000000000

     Writing output data file pwscf.save
     NEW-OLD atomic charge density approx. for the potential
     extrapolated charge   44.99740, renormalised to   44.00000

[...]

     enthalpy old            =    -852.4298845279 Ry
     enthalpy new            =    -852.4310743583 Ry

     CASE: enthalpy_new < enthalpy_old

[...]

     WARNING: bfgs curvature condition failed, Theta= 0.886
     new trust radius        =       0.0031553169 bohr
     new conv_thr            =       0.0000000100 Ry

[...]

     number of scf cycles    =   4
     number of bfgs steps    =   3

     enthalpy old            =    -852.4310990050 Ry
     enthalpy new            =    -852.4311049649 Ry

     CASE: enthalpy_new < enthalpy_old

     new trust radius        =       0.0004224967 bohr
     new conv_thr            =       0.0000000100 Ry

     new unit-cell volume =    323.66289 a.u.^3 (    47.96189 Ang^3 )
     density =      8.80037 g/cm^3

[...]

ATOMIC_POSITIONS (angstrom)
Cu       0.000000000   0.000000000   0.000000000
Cu       0.000000000   1.816639576   1.816639576
Cu       1.816639576   0.000000000   1.816639576
Cu       1.816639576   1.816639576   0.000000000

     Writing output data file pwscf.save
     NEW-OLD atomic charge density approx. for the potential
     extrapolated charge   43.98450, renormalised to   44.00000

[...]

     bfgs converged in   5 scf cycles and   4 bfgs steps
     (criteria: energy <  1.0E-04 Ry, force <  1.0E-03Ry/Bohr, cell <  5.0E-01kbar)

     End of BFGS Geometry Optimization

     Final enthalpy =    -852.4311054432 Ry
Begin final coordinates
     new unit-cell volume =    323.66289 a.u.^3 (    47.96189 Ang^3 )
     density =      8.80037 g/cm^3

CELL_PARAMETERS (angstrom)
   3.633279152   0.000000000   0.000000000
   0.000000000   3.633279152   0.000000000
   0.000000000   0.000000000   3.633279152

ATOMIC_POSITIONS (angstrom)
Cu       0.000000000   0.000000000   0.000000000
Cu       0.000000000   1.816639576   1.816639576
Cu       1.816639576   0.000000000   1.816639576
Cu       1.816639576   1.816639576   0.000000000
End final coordinates

     A final scf calculation at the relaxed structure.
     The G-vectors are recalculated for the final unit cell
     Results may differ from those at the preceding step.

     bravais-lattice index     =            0
     lattice parameter (alat)  =       6.8030  a.u.
     unit-cell volume          =     323.6629 (a.u.)^3
     number of atoms/cell      =            4
     number of atomic types    =            1
     number of electrons       =        44.00
     number of Kohn-Sham states=           26
     kinetic-energy cutoff     =      50.0000  Ry
     charge density cutoff     =     500.0000  Ry
     convergence threshold     =      1.0E-08
     mixing beta               =       0.7000
     number of iterations used =            8  plain     mixing
     Exchange-correlation      =  SLA  PW   PBX  PBC ( 1  4  3  4 0 0)

     celldm(1)=   6.803014  celldm(2)=   0.000000  celldm(3)=   0.000000
     celldm(4)=   0.000000  celldm(5)=   0.000000  celldm(6)=   0.000000

     crystal axes: (cart. coord. in units of alat)
               a(1) = (   1.009244   0.000000   0.000000 )
               a(2) = (   0.000000   1.009244   0.000000 )
               a(3) = (   0.000000   0.000000   1.009244 )

     reciprocal axes: (cart. coord. in units 2 pi/alat)
               b(1) = (  0.990840  0.000000  0.000000 )
               b(2) = (  0.000000  0.990840  0.000000 )
               b(3) = (  0.000000  0.000000  0.990840 )

     PseudoPot. # 1 for Cu read from file:
     /home/harris.se/espresso/pseudos/Cu.pbe-dn-kjpaw_psl.1.0.0.UPF
     MD5 check sum: cfffd1f38ee05704b3e17f46f1730a6f
     Pseudo is Projector augmented-wave + core cor, Zval = 11.0
     Generated using "atomic" code by A. Dal Corso  v.6.3
     Shape of augmentation charge: PSQ
     Using radial grid of 1199 points,  6 beta functions with:
                l(1) =   0
                l(2) =   0
                l(3) =   1
                l(4) =   1
                l(5) =   2
                l(6) =   2
     Q(r) pseudized with 0 coefficients

     atomic species   valence    mass     pseudopotential
        Cu            11.00    63.54600     Cu( 1.00)

     48 Sym. Ops., with inversion, found

   Cartesian axes

     site n.     atom                  positions (alat units)
         1           Cu  tau(   1) = (   0.0000000   0.0000000   0.0000000  )
         2           Cu  tau(   2) = (   0.0000000   0.5046221   0.5046221  )
         3           Cu  tau(   3) = (   0.5046221   0.0000000   0.5046221  )
         4           Cu  tau(   4) = (   0.5046221   0.5046221   0.0000000  )

     number of k points=    10  gaussian smearing, width (Ry)=  0.1000
                       cart. coord. in units 2pi/alat
        k(    1) = (   0.0000000   0.0000000   0.0000000), wk =   0.0312500
        k(    2) = (   0.0000000   0.0000000   0.2477101), wk =   0.1875000
        k(    3) = (   0.0000000   0.0000000  -0.4954202), wk =   0.0937500
        k(    4) = (   0.0000000   0.2477101   0.2477101), wk =   0.3750000
        k(    5) = (   0.0000000   0.2477101  -0.4954202), wk =   0.3750000
        k(    6) = (   0.0000000  -0.4954202  -0.4954202), wk =   0.0937500
        k(    7) = (   0.2477101   0.2477101   0.2477101), wk =   0.2500000
        k(    8) = (   0.2477101   0.2477101  -0.4954202), wk =   0.3750000
        k(    9) = (   0.2477101  -0.4954202  -0.4954202), wk =   0.1875000
        k(   10) = (  -0.4954202  -0.4954202  -0.4954202), wk =   0.0312500

     Initial potential from superposition of free atoms

     starting charge   43.99909, renormalised to   44.00000
     Starting wfc are   36 randomized atomic wfcs
     Checking if some PAW data can be deallocated...

     Writing output data file pwscf.save

     Self-consistent Calculation

[...]

     total energy              =    -852.43209988 Ry
     Harris-Foulkes estimate   =    -852.43209989 Ry
     estimated scf accuracy    <       0.00000002 Ry

     iteration #  8     ecut=    50.00 Ry     beta= 0.70
     Davidson diagonalization with overlap
     ethr =  4.54E-11,  avg # of iterations =  1.2

     End of self-consistent calculation

[...]

          k = 0.2477-0.4954-0.4954 (  1940 PWs)   bands (ev):

[...]

          k =-0.4954-0.4954-0.4954 (  1904 PWs)   bands (ev):

     7.3242   7.3242   7.3242   7.3242   9.2960   9.2960   9.2961   9.2961
     9.2961   9.2961   9.2961   9.2961  10.6888  10.6888  10.6888  10.6888
    10.6888  10.6889  10.6889  10.6889  11.3969  11.3969  11.3969  11.3970
    16.0110  16.0111

     the Fermi energy is    12.5661 ev

!    total energy              =    -852.43209988 Ry
     Harris-Foulkes estimate   =    -852.43209988 Ry
     estimated scf accuracy    <          3.9E-09 Ry

     total all-electron energy =    -13239.951164 Ry

     The total energy is the sum of the following terms:

     one-electron contribution =    -114.39903307 Ry
     hartree contribution      =     123.10732446 Ry
     xc contribution           =    -178.41859229 Ry
     ewald contribution        =    -323.20197146 Ry
     one-center paw contrib.   =    -359.40427340 Ry
     smearing contrib. (-TS)   =      -0.11555412 Ry

     convergence has been achieved in   8 iterations

     Forces acting on atoms (cartesian axes, Ry/au):

     atom    1 type  1   force =     0.00000000    0.00000000    0.00000000
     atom    2 type  1   force =     0.00000000    0.00000000    0.00000000
     atom    3 type  1   force =     0.00000000    0.00000000    0.00000000
     atom    4 type  1   force =     0.00000000    0.00000000    0.00000000

     Total force =     0.000000     Total SCF correction =     0.000000

     Computing stress (Cartesian axis) and pressure

          total   stress  (Ry/bohr**3)                   (kbar)     P=    1.30
   0.00000882   0.00000000   0.00000000          1.30      0.00      0.00
   0.00000000   0.00000882   0.00000000          0.00      1.30      0.00
   0.00000000   0.00000000   0.00000882          0.00      0.00      1.30

     Writing output data file pwscf.save

     General routines

     Parallel routines

   This run was terminated on:  15:25:50  23Nov2021

   JOB DONE.