     Program PWSCF v.6.2 starts on 25Nov2021 at  2:33:41

     Reading input from espresso.pwi
Warning: card &CELL ignored
Warning: card / ignored

     Current dimensions of program PWSCF are:
     Max number of different atomic species (ntypx) = 10
     Max number of k-points (npk) =  40000
     Max angular momentum in pseudopotentials (lmaxx) =  3
               file Cu.pbe-dn-kjpaw_psl.1.0.0.UPF: wavefunction(s)  4S 3D renormalized

     Subspace diagonalization in iterative solution of the eigenvalue problem:
     a serial algorithm will be used

     bravais-lattice index     =            0
     lattice parameter (alat)  =      14.5648  a.u.
     unit-cell volume          =    6663.9727 (a.u.)^3
     number of atoms/cell      =           27
     number of atomic types    =            1
     number of electrons       =       297.00
     number of Kohn-Sham states=          179
     kinetic-energy cutoff     =      50.0000  Ry
     charge density cutoff     =     500.0000  Ry
     convergence threshold     =      1.0E-06
     mixing beta               =       0.7000
     number of iterations used =            8  plain     mixing
     Exchange-correlation      =  SLA  PW   PBX  PBC ( 1  4  3  4 0 0)
     nstep                     =           50

     celldm(1)=  14.564779  celldm(2)=   0.000000  celldm(3)=   0.000000
     celldm(4)=   0.000000  celldm(5)=   0.000000  celldm(6)=   0.000000

     crystal axes: (cart. coord. in units of alat)
               a(1) = (   1.000000   0.000000   0.000000 )
               a(2) = (   0.500000   0.866025   0.000000 )
               a(3) = (   0.000000   0.000000   2.490526 )

     reciprocal axes: (cart. coord. in units 2 pi/alat)
               b(1) = (  1.000000 -0.577351  0.000000 )
               b(2) = (  0.000000  1.154701  0.000000 )
               b(3) = (  0.000000  0.000000  0.401522 )

     PseudoPot. # 1 for Cu read from file:
     /home/harris.se/espresso/pseudos/Cu.pbe-dn-kjpaw_psl.1.0.0.UPF
     MD5 check sum: cfffd1f38ee05704b3e17f46f1730a6f
     Pseudo is Projector augmented-wave + core cor, Zval = 11.0
     Generated using "atomic" code by A. Dal Corso  v.6.3
     Shape of augmentation charge: PSQ
     Using radial grid of 1199 points,  6 beta functions with:
                l(1) =   0
                l(2) =   0
                l(3) =   1
                l(4) =   1
                l(5) =   2
                l(6) =   2
     Q(r) pseudized with 0 coefficients

     atomic species   valence    mass     pseudopotential
        Cu            11.00    63.54600     Cu( 1.00)

      6 Sym. Ops. (no inversion) found

   Cartesian axes

     site n.     atom                  positions (alat units)
         1           Cu  tau(   1) = (   0.1666545   0.0962179   0.9730946  )
         2           Cu  tau(   2) = (   0.5000000   0.0962280   0.9731033  )
         3           Cu  tau(   3) = (   0.8333455   0.0962179   0.9730946  )
         4           Cu  tau(   4) = (   0.3333359   0.3848987   0.9731033  )
         5           Cu  tau(   5) = (   0.6666641   0.3848987   0.9731033  )
         6           Cu  tau(   6) = (   1.0000000   0.3848823   0.9731004  )
         7           Cu  tau(   7) = (   0.5000000   0.6735894   0.9730946  )
         8           Cu  tau(   8) = (   0.8333178   0.6735843   0.9731004  )
         9           Cu  tau(   9) = (   1.1666822   0.6735843   0.9731004  )
        10           Cu  tau(  10) = (   0.0000000   0.1924585   1.2449951  )
        11           Cu  tau(  11) = (   0.3333395   0.1924536   1.2450679  )
        12           Cu  tau(  12) = (   0.6666605   0.1924536   1.2450679  )
        13           Cu  tau(  13) = (   0.1666441   0.4811383   1.2450419  )
        14           Cu  tau(  14) = (   0.5000000   0.4811181   1.2450679  )
        15           Cu  tau(  15) = (   0.8333559   0.4811383   1.2450419  )
        16           Cu  tau(  16) = (   0.3333261   0.7697961   1.2449951  )
        17           Cu  tau(  17) = (   0.6666739   0.7697961   1.2449951  )
        18           Cu  tau(  18) = (   1.0000000   0.7697742   1.2450419  )
        19           Cu  tau(  19) = (   0.0000000   0.0000000   1.5171414  )
        20           Cu  tau(  20) = (   0.3333705  -0.0000047   1.5171971  )
        21           Cu  tau(  21) = (   0.6666295  -0.0000047   1.5171971  )
        22           Cu  tau(  22) = (   0.1666812   0.2887096   1.5171971  )
        23           Cu  tau(  23) = (   0.5000000   0.2886751   1.5172593  )
        24           Cu  tau(  24) = (   0.8333188   0.2887096   1.5171971  )
        25           Cu  tau(  25) = (   0.3333107   0.5773204   1.5171971  )
        26           Cu  tau(  26) = (   0.6666893   0.5773204   1.5171971  )
        27           Cu  tau(  27) = (   1.0000000   0.5773503   1.5171980  )

     number of k points=     4  gaussian smearing, width (Ry)=  0.1000
                       cart. coord. in units 2pi/alat
        k(    1) = (   0.0000000   0.0000000   0.0000000), wk =   0.1250000
        k(    2) = (   0.0000000   0.2886753   0.0000000), wk =   0.7500000
        k(    3) = (   0.0000000  -0.5773505   0.0000000), wk =   0.3750000
        k(    4) = (   0.2500000  -0.7216882   0.0000000), wk =   0.7500000

     Initial potential from superposition of free atoms
     Check: negative starting charge=   -0.000838

     starting charge  296.99386, renormalised to  297.00000

     negative rho (up, down):  8.381E-04 0.000E+00
     Starting wfc are  243 randomized atomic wfcs
     Checking if some PAW data can be deallocated...

     Self-consistent Calculation

     iteration #  1     ecut=    50.00 Ry     beta= 0.70
     Davidson diagonalization with overlap
     ethr =  1.00E-02,  avg # of iterations =  3.5

     Threshold (ethr) on eigenvalues was too large:
     Diagonalizing with lowered threshold

     Davidson diagonalization with overlap
     ethr =  3.92E-04,  avg # of iterations =  4.5

     negative rho (up, down):  7.683E-04 0.000E+00

     total energy              =   -5752.44074875 Ry
     Harris-Foulkes estimate   =   -5753.67464832 Ry
     estimated scf accuracy    <       1.59663082 Ry

[...]

     total energy              =   -5753.34390620 Ry
     Harris-Foulkes estimate   =   -5753.34390773 Ry
     estimated scf accuracy    <       0.00001802 Ry

     iteration # 16     ecut=    50.00 Ry     beta= 0.70
     Davidson diagonalization with overlap
     ethr =  7.61E-10,  avg # of iterations =  2.0

[...]

     End of self-consistent calculation

          k = 0.0000 0.0000 0.0000 ( 39849 PWs)   bands (ev):

    -7.8109  -5.8540  -4.8927  -4.8925  -4.8925  -4.8923  -4.8922  -4.8921
    -4.4022  -3.8692  -3.8691  -3.8690  -3.8690  -3.8690  -3.8690  -3.3382
    -3.3381  -3.3381  -3.3380  -3.3379  -3.3379  -3.1375  -3.1375  -3.0916
    -3.0914  -3.0888  -3.0888  -3.0399  -3.0399  -3.0399  -3.0398  -3.0397
    -3.0396  -2.9184  -2.9184  -2.9164  -2.9163  -2.6479  -2.6478  -2.6478
    -2.6477  -2.6475  -2.6475  -2.3376  -2.3376  -2.3166  -2.3166  -2.3165
    -2.3163  -2.3163  -2.3162  -2.3083  -2.2622  -2.2622  -2.2084  -2.0745
    -2.0744  -2.0740  -2.0740  -2.0713  -2.0713  -2.0639  -2.0638  -2.0637
    -2.0636  -2.0636  -2.0635  -2.0383  -2.0383  -2.0107  -2.0107  -1.9761
    -1.9761  -1.9761  -1.9759  -1.9758  -1.9758  -1.9573  -1.9573  -1.7514
    -1.7514  -1.7513  -1.7513  -1.7513  -1.7512  -1.5425  -1.5425  -1.5425
    -1.5425  -1.5425  -1.5424  -1.4892  -1.4892  -1.4883  -1.4882  -1.4500
    -1.4500  -1.4500  -1.4499  -1.4499  -1.4497  -1.4468  -1.4468  -1.2469
    -1.2468  -1.2468  -1.2466  -1.2466  -1.2466  -1.1964  -1.1964  -1.1964
    -1.1963  -1.1963  -1.1963  -1.1578  -1.1578  -1.0741  -1.0740  -1.0740
    -1.0739  -1.0737  -1.0737  -1.0612  -1.0611  -1.0610  -1.0610  -1.0472
    -1.0472  -1.0472  -1.0470  -1.0469  -1.0469  -1.0145  -1.0145  -0.9459
    -0.9459  -0.9131  -0.9131  -0.9131  -0.9131  -0.9130  -0.9130  -0.7391
    -0.5519  -0.5517  -0.5517  -0.5516  -0.5516  -0.5515   0.7491   2.0746
     2.0746   2.0748   2.0749   2.0750   2.0751   4.3705   4.3709   4.3710
     4.3710   4.7630   4.7630   4.9790   5.2531   5.2532   5.2532   5.2535
     5.2535   5.2536   5.4311   5.4311   5.6167   6.0234   6.7468   6.7468
     6.7478   6.7479   7.7719

[...]

          k = 0.2500-0.7217 0.0000 ( 39808 PWs)   bands (ev):

    -7.1659  -6.3541  -6.3538  -5.2581  -4.5757  -4.5755  -4.4246  -4.4245
    -3.9428  -3.9184  -3.9184  -3.7005  -3.7004  -3.6751  -3.6275  -3.6030
    -3.6029  -3.5125  -3.4778  -3.4776  -3.4091  -3.3590  -3.3590  -3.2321
    -3.2320  -3.2318  -3.1063  -3.1060  -3.0838  -3.0352  -2.9091  -2.8705
    -2.8704  -2.7294  -2.7292  -2.6939  -2.6939  -2.6932  -2.6824  -2.6821
    -2.6173  -2.5921  -2.5919  -2.5445  -2.5433  -2.4630  -2.4630  -2.3891
    -2.3850  -2.3651  -2.3650  -2.3369  -2.3256  -2.3255  -2.2493  -2.2220
    -2.2219  -2.2127  -2.2126  -2.1616  -2.1615  -2.1431  -2.1253  -2.1252
    -2.1166  -2.1166  -2.0920  -2.0780  -2.0679  -2.0421  -2.0421  -2.0306
    -1.9770  -1.9646  -1.9605  -1.9306  -1.9031  -1.9029  -1.8804  -1.8803
    -1.8521  -1.8520  -1.8038  -1.8036  -1.7530  -1.7528  -1.7296  -1.7136
    -1.6156  -1.5712  -1.5712  -1.5487  -1.5322  -1.5322  -1.5166  -1.4929
    -1.4849  -1.4848  -1.4698  -1.4524  -1.4522  -1.4440  -1.4439  -1.4346
    -1.4066  -1.4066  -1.3789  -1.3581  -1.3580  -1.3451  -1.2549  -1.2548
    -1.2255  -1.2254  -1.2186  -1.1807  -1.1234  -1.1233  -1.0801  -1.0529
    -1.0529  -1.0459  -1.0260  -1.0259  -1.0064  -0.9944  -0.9943  -0.9737
    -0.9681  -0.9681  -0.9594  -0.9594  -0.9588  -0.9217  -0.9217  -0.9048
    -0.9048  -0.8944  -0.8534  -0.8142  -0.8141  -0.4121  -0.4120   0.0454
     0.3034   0.3035   0.6564   0.6871   0.6871   0.7172   0.7174   1.7760
     1.7762   1.8286   1.9545   2.0412   2.7607   2.7609   2.7634   3.0433
     3.0435   3.1292   3.1294   3.3947   4.2992   5.4265   5.4267   5.4650
     5.5575   5.9504   5.9506   6.2438   6.2438   6.2620   6.3280   6.3281
     6.5912   6.9046   7.3054

     the Fermi energy is     0.8958 ev

!    total energy              =   -5753.34390651 Ry
     Harris-Foulkes estimate   =   -5753.34390704 Ry
     estimated scf accuracy    <       0.00000056 Ry

     total all-electron energy =    -89369.097591 Ry

     The total energy is the sum of the following terms:

     one-electron contribution =  -17908.62325248 Ry
     hartree contribution      =    9273.49133739 Ry
     xc contribution           =   -1203.30962950 Ry
     ewald contribution        =    6511.84945272 Ry
     one-center paw contrib.   =   -2425.81685072 Ry
     smearing contrib. (-TS)   =      -0.93496391 Ry

     convergence has been achieved in  16 iterations

     negative rho (up, down):  7.534E-04 0.000E+00

     Forces acting on atoms (cartesian axes, Ry/au):

     atom    1 type  1   force =    -0.00001022   -0.00000590   -0.00001756
     atom    2 type  1   force =    -0.00000000   -0.00000138    0.00000553
     atom    3 type  1   force =     0.00001022   -0.00000590   -0.00001756
     atom    4 type  1   force =    -0.00000119    0.00000069    0.00000553
     atom    5 type  1   force =     0.00000119    0.00000069    0.00000553
     atom    6 type  1   force =     0.00000000   -0.00001258    0.00000655
     atom    7 type  1   force =    -0.00000000    0.00001180   -0.00001756
     atom    8 type  1   force =    -0.00001090    0.00000629    0.00000655
     atom    9 type  1   force =     0.00001090    0.00000629    0.00000655
     atom   10 type  1   force =    -0.00000000   -0.00000134    0.00000040
     atom   11 type  1   force =     0.00000022    0.00000013   -0.00001382
     atom   12 type  1   force =    -0.00000022    0.00000013   -0.00001382
     atom   13 type  1   force =    -0.00000067    0.00000038    0.00000128
     atom   14 type  1   force =    -0.00000000   -0.00000025   -0.00001382
     atom   15 type  1   force =     0.00000067    0.00000038    0.00000128
     atom   16 type  1   force =     0.00000116    0.00000067    0.00000040
     atom   17 type  1   force =    -0.00000116    0.00000067    0.00000040
     atom   18 type  1   force =     0.00000000   -0.00000077    0.00000128
     atom   19 type  1   force =     0.00000000    0.00000000    0.00001866
     atom   20 type  1   force =     0.00000087    0.00000342    0.00000688
     atom   21 type  1   force =    -0.00000087    0.00000342    0.00000688
     atom   22 type  1   force =     0.00000340   -0.00000096    0.00000688
     atom   23 type  1   force =     0.00000000    0.00000000   -0.00000300
     atom   24 type  1   force =    -0.00000340   -0.00000096    0.00000688
     atom   25 type  1   force =     0.00000253   -0.00000246    0.00000688
     atom   26 type  1   force =    -0.00000253   -0.00000246    0.00000688
     atom   27 type  1   force =     0.00000000    0.00000000   -0.00000405

     Total force =     0.000058     Total SCF correction =     0.002443
     SCF correction compared to forces is large: reduce conv_thr to get better values

     Computing stress (Cartesian axis) and pressure

     negative rho (up, down):  7.534E-04 0.000E+00
          total   stress  (Ry/bohr**3)                   (kbar)     P=  -14.06
  -0.00012593  -0.00000000   0.00000000        -18.52     -0.00      0.00
   0.00000000  -0.00012593   0.00000000          0.00    -18.52      0.00
   0.00000000   0.00000000  -0.00003488          0.00      0.00     -5.13

     BFGS Geometry Optimization

     bfgs converged in   1 scf cycles and   0 bfgs steps
     (criteria: energy <  1.0E-04 Ry, force <  1.0E-03 Ry/Bohr)

     End of BFGS Geometry Optimization

     Final energy   =   -5753.3439065094 Ry
Begin final coordinates

ATOMIC_POSITIONS (angstrom)
Cu       1.284464286   0.741585310   7.499980065
Cu       3.853674546   0.741662977   7.500046944
Cu       6.422884805   0.741585310   7.499980065
Cu       2.569136296   2.966548541   7.500046944
Cu       5.138212795   2.966548541   7.500046944
Cu       7.707349092   2.966422071   7.500024407
Cu       3.853674546   5.191588716   7.499980065
Cu       6.422671021   5.191549055   7.500024407
Cu       8.992027162   5.191549055   7.500024407
Cu       0.000000000   1.483344845   9.595611935
Cu       2.569163778   1.483307401   9.596172678
Cu       5.138185313   1.483307401   9.596172678
Cu       1.284383922   3.708300533   9.595972757
Cu       3.853674546   3.708145260   9.596172678
Cu       6.422965170   3.708300533   9.595972757
Cu       2.569060383   5.933087281   9.595611935
Cu       5.138288708   5.933087281   9.595611935
Cu       7.707349092   5.932918326   9.595972757
Cu       0.000000000   0.000000000  11.693138019
Cu       2.569402592  -0.000036385  11.693567334
Cu       5.137946500  -0.000036385  11.693567334
Cu       1.284670238   2.225185643  11.693567334
Cu       3.853674546   2.224919770  11.694047181
Cu       6.422678854   2.225185643  11.693567334
Cu       2.568942192   4.449610051  11.693567334
Cu       5.138406900   4.449610051  11.693567334
Cu       7.707349092   4.449840310  11.693574677
End final coordinates

     Writing output data file pwscf.save

     General routines

     Parallel routines

   This run was terminated on:   5: 3:41  25Nov2021

   JOB DONE.